(set-logic HORN)
(declare-datatypes ((Nat_1 0)) (((Z_4 ) (Z_5 (unS_0 Nat_1)))))
(declare-fun diseqNat_1 (Nat_1 Nat_1) Bool)
(declare-datatypes ((list_0 0)) (((nil_0 ) (cons_0 (head_0 Nat_1) (tail_0 list_0)))))
(declare-fun diseqlist_0 (list_0 list_0) Bool)
(declare-datatypes ((Nat_0 0)) (((zero_0 ) (succ_0 (p_0 Nat_0)))))
(declare-fun snoc_0 (list_0 Nat_1 list_0) Bool)
(declare-fun rotate_0 (list_0 Nat_0 list_0) Bool)
(declare-fun x_2 (list_0 list_0 list_0) Bool)
(assert (forall ((x_47 Nat_1))
	(diseqNat_1 Z_4 (Z_5 x_47))))
(assert (forall ((x_48 Nat_1))
	(diseqNat_1 (Z_5 x_48) Z_4)))
(assert (forall ((x_49 Nat_1) (x_50 Nat_1))
	(=> (diseqNat_1 x_49 x_50) (diseqNat_1 (Z_5 x_49) (Z_5 x_50)))))
(assert (forall ((x_27 Nat_1) (x_28 list_0))
	(diseqlist_0 nil_0 (cons_0 x_27 x_28))))
(assert (forall ((x_29 Nat_1) (x_30 list_0))
	(diseqlist_0 (cons_0 x_29 x_30) nil_0)))
(assert (forall ((x_31 Nat_1) (x_32 list_0) (x_33 Nat_1) (x_34 list_0))
	(=> (diseqNat_1 x_31 x_33) (diseqlist_0 (cons_0 x_31 x_32) (cons_0 x_33 x_34)))))
(assert (forall ((x_31 Nat_1) (x_32 list_0) (x_33 Nat_1) (x_34 list_0))
	(=> (diseqlist_0 x_32 x_34) (diseqlist_0 (cons_0 x_31 x_32) (cons_0 x_33 x_34)))))
(assert (forall ((x_5 list_0) (z_0 Nat_1) (ys_0 list_0) (x_0 Nat_1))
	(=> (snoc_0 x_5 x_0 ys_0) (snoc_0 (cons_0 z_0 x_5) x_0 (cons_0 z_0 ys_0)))))
(assert (forall ((x_0 Nat_1))
	(snoc_0 (cons_0 x_0 nil_0) x_0 nil_0)))
(assert (forall ((x_7 list_0) (x_8 list_0) (z_2 Nat_1) (xs_0 list_0) (z_1 Nat_0))
	(=> (and (snoc_0 x_8 z_2 xs_0) (rotate_0 x_7 z_1 x_8)) (rotate_0 x_7 (succ_0 z_1) (cons_0 z_2 xs_0)))))
(assert (forall ((z_1 Nat_0))
	(rotate_0 nil_0 (succ_0 z_1) nil_0)))
(assert (forall ((x_11 list_0))
	(rotate_0 x_11 zero_0 x_11)))
(assert (forall ((x_13 list_0) (z_3 Nat_1) (xs_1 list_0) (y_2 list_0))
	(=> (x_2 x_13 xs_1 y_2) (x_2 (cons_0 z_3 x_13) (cons_0 z_3 xs_1) y_2))))
(assert (forall ((x_14 list_0))
	(x_2 x_14 nil_0 x_14)))
(assert (forall ((x_15 list_0) (x_16 list_0) (x_17 list_0) (x_18 list_0) (x_19 list_0) (n_0 Nat_0) (xs_2 list_0))
	(=> (and (diseqlist_0 x_16 x_19) (x_2 x_15 xs_2 xs_2) (rotate_0 x_16 n_0 x_15) (rotate_0 x_17 n_0 xs_2) (rotate_0 x_18 n_0 xs_2) (x_2 x_19 x_17 x_18)) false)))
(check-sat)
(get-model)
